; benchmark generated from python API
(set-info :status unknown)
(declare-fun DISJ_W_S1_R_S1 () Bool)
(declare-fun W_S1_V2 () Bool)
(declare-fun W_S1_V4 () Bool)
(declare-fun W_S1_V1 () Bool)
(declare-fun R_S1_V4 () Bool)
(declare-fun R_S1_V2 () Bool)
(declare-fun R_S1_V3 () Bool)
(declare-fun R_S1_V1 () Bool)
(declare-fun W_S1_V3 () Bool)
(assert
 (let (($x2247 (not (and (not W_S1_V2) DISJ_W_S1_R_S1))))
 (let (($x1931 (forall ((V1_0 Int) )(forall ((V3_0 Int) )(forall ((V2_0 Int) )(forall ((V4_0 Int) )(forall ((MW_S1_V1 Bool) )(forall ((MW_S1_V3 Bool) )(forall ((MW_S1_V2 Bool) )(forall ((MW_S1_V4 Bool) )(forall ((S1_V3_!137 Int) )(forall ((S1_V3_!141 Int) )(forall ((S1_V3_!145 Int) )(forall ((S1_V3_!149 Int) )(forall ((S1_V4_!139 Int) )(forall ((S1_V4_!143 Int) )(forall ((S1_V4_!147 Int) )(forall ((S1_V4_!151 Int) )(forall ((S1_V1_!136 Int) )(forall ((S1_V1_!140 Int) )(forall ((S1_V1_!144 Int) )(forall ((S1_V1_!148 Int) )(forall ((S1_V2_!138 Int) )(forall ((S1_V2_!142 Int) )(forall ((S1_V2_!146 Int) )(forall ((S1_V2_!150 Int) )(let ((?x826 (ite MW_S1_V1 S1_V1_!140 V1_0)))
 (let ((?x2956 (+ 1 ?x826)))
 (let ((?x5937 (ite MW_S1_V1 S1_V1_!144 ?x2956)))
 (let ((?x1509 (+ 1 ?x5937)))
 (let ((?x2809 (ite MW_S1_V1 S1_V1_!136 V1_0)))
 (let (($x1526 (and (= ?x2809 (ite MW_S1_V1 S1_V1_!148 ?x1509)) (= (ite MW_S1_V3 S1_V3_!137 V3_0) (ite MW_S1_V3 S1_V3_!149 V3_0)) (= (ite MW_S1_V2 S1_V2_!138 V2_0) (ite MW_S1_V2 S1_V2_!150 V2_0)) (= (ite MW_S1_V4 S1_V4_!139 V4_0) (ite MW_S1_V4 S1_V4_!151 V4_0)))))
 (let (($x2666 (and (not (<= V2_0 V1_0)) (>= ?x2809 (+ (- 1) (ite MW_S1_V2 S1_V2_!138 V2_0))) (not (<= V2_0 (+ 1 V1_0))) (>= ?x5937 (+ (- 2) (ite MW_S1_V2 S1_V2_!146 V2_0))) (not (<= (ite MW_S1_V2 S1_V2_!146 V2_0) ?x1509)))))
 (let (($x851 (= S1_V2_!150 S1_V2_!146)))
 (let (($x2850 (and (or (not R_S1_V1) (= ?x5937 ?x826)) (or (not R_S1_V3) (= (ite MW_S1_V3 S1_V3_!145 V3_0) (ite MW_S1_V3 S1_V3_!141 V3_0))) (or (not R_S1_V2) (= (ite MW_S1_V2 S1_V2_!146 V2_0) (ite MW_S1_V2 S1_V2_!142 V2_0))) (or (not R_S1_V4) (= (ite MW_S1_V4 S1_V4_!147 V4_0) (ite MW_S1_V4 S1_V4_!143 V4_0))))))
 (let (($x3518 (not $x2850)))
 (let (($x5911 (= S1_V2_!150 S1_V2_!142)))
 (let (($x990 (and (or (not R_S1_V1) (= ?x5937 (+ (- 1) V1_0))) (or (not R_S1_V3) (= (ite MW_S1_V3 S1_V3_!145 V3_0) V3_0)) (or (not R_S1_V2) (= (ite MW_S1_V2 S1_V2_!146 V2_0) V2_0)) (or (not R_S1_V4) (= (ite MW_S1_V4 S1_V4_!147 V4_0) V4_0)))))
 (let (($x4571 (not $x990)))
 (let (($x2713 (= S1_V2_!142 S1_V2_!146)))
 (let (($x779 (and (or (not R_S1_V1) (= V1_0 ?x2956)) (or (not R_S1_V3) (= V3_0 (ite MW_S1_V3 S1_V3_!141 V3_0))) (or (not R_S1_V2) (= V2_0 (ite MW_S1_V2 S1_V2_!142 V2_0))) (or (not R_S1_V4) (= V4_0 (ite MW_S1_V4 S1_V4_!143 V4_0))))))
 (let (($x5955 (not $x779)))
 (let (($x5074 (and (or (not R_S1_V1) (= V1_0 ?x1509)) (or (not R_S1_V3) (= V3_0 (ite MW_S1_V3 S1_V3_!145 V3_0))) (or (not R_S1_V2) (= V2_0 (ite MW_S1_V2 S1_V2_!146 V2_0))) (or (not R_S1_V4) (= V4_0 (ite MW_S1_V4 S1_V4_!147 V4_0))))))
 (let (($x1236 (not $x5074)))
 (let (($x3904 (= S1_V1_!136 S1_V1_!140)))
 (let (($x365 (and (or (not R_S1_V1) (= ?x826 ?x5937)) (or (not R_S1_V3) (= (ite MW_S1_V3 S1_V3_!141 V3_0) (ite MW_S1_V3 S1_V3_!145 V3_0))) (or (not R_S1_V2) (= (ite MW_S1_V2 S1_V2_!142 V2_0) (ite MW_S1_V2 S1_V2_!146 V2_0))) (or (not R_S1_V4) (= (ite MW_S1_V4 S1_V4_!143 V4_0) (ite MW_S1_V4 S1_V4_!147 V4_0))))))
 (let (($x1397 (= S1_V4_!143 S1_V4_!139)))
 (let (($x2654 (and (or (not R_S1_V1) (= ?x826 (+ (- 1) V1_0))) (or (not R_S1_V3) (= (ite MW_S1_V3 S1_V3_!141 V3_0) V3_0)) (or (not R_S1_V2) (= (ite MW_S1_V2 S1_V2_!142 V2_0) V2_0)) (or (not R_S1_V4) (= (ite MW_S1_V4 S1_V4_!143 V4_0) V4_0)))))
 (let (($x1890 (and (= S1_V3_!141 S1_V3_!137) (or $x5955 (= S1_V3_!141 S1_V3_!145)) (or $x1236 (= S1_V3_!141 S1_V3_!149)) (or (not $x2654) (= S1_V3_!145 S1_V3_!137)) (or $x4571 (= S1_V3_!149 S1_V3_!137)) (or $x3518 (= S1_V3_!149 S1_V3_!145)) (or $x5955 (= S1_V4_!139 S1_V4_!147)) (or $x1236 (= S1_V4_!139 S1_V4_!151)) $x1397 (or $x5955 (= S1_V4_!143 S1_V4_!147)) (or $x1236 (= S1_V4_!143 S1_V4_!151)) (or (not $x365) (= S1_V4_!147 S1_V4_!151)) $x3904 (or $x5955 (= S1_V1_!136 S1_V1_!144)) (or $x1236 (= S1_V1_!136 S1_V1_!148)) (or $x5955 (= S1_V1_!140 S1_V1_!144)) (or $x1236 (= S1_V1_!140 S1_V1_!148)) (or $x3518 (= S1_V1_!148 S1_V1_!144)) (or $x5955 (= S1_V2_!138 S1_V2_!146)) (= S1_V2_!142 S1_V2_!138) (or $x5955 $x2713) (or $x4571 (= S1_V2_!150 S1_V2_!138)) (or $x4571 $x5911) (or $x3518 $x851) (or (not MW_S1_V1) W_S1_V1) (or (not MW_S1_V2) W_S1_V2) (or (not MW_S1_V4) W_S1_V4))))
 (or (not $x1890) (not $x2666) $x1526)))))))))))))))))))))))))
 )
 )
 )
 )
 )
 )
 )
 )
 )
 )
 )
 )
 )
 )
 )
 )
 )
 )
 )
 )
 )
 )
 )
 ))
 (let (($x342 (and W_S1_V4 R_S1_V4)))
 (let (($x4669 (and W_S1_V2 R_S1_V2)))
 (let (($x1637 (and W_S1_V1 R_S1_V1)))
 (let (($x3534 (= DISJ_W_S1_R_S1 (not (or $x1637 R_S1_V3 $x4669 $x342)))))
 (and (and W_S1_V3 $x3534 $x1931) $x2247))))))))
(check-sat)
